c 
p cnf 10 40
-6 4 -8 0
8 6 -1 0
-9 -2 -3 0
7 -4 3 0
-2 -6 -9 0
-9 -6 2 0
-1 -8 5 0
5 3 8 0
4 -5 -6 0
2 -7 -9 0
-7 -3 4 0
1 7 -9 0
6 5 1 0
-10 2 8 0
-8 2 3 0
8 -3 1 0
-1 7 9 0
6 2 -4 0
7 2 -5 0
4 7 -1 0
2 6 9 0
1 -2 -7 0
9 5 -4 0
-7 4 -6 0
6 -8 -9 0
-10 4 -6 0
5 10 8 0
-6 1 -5 0
-4 2 7 0
6 -2 3 0
-6 3 9 0
4 -1 -2 0
10 -5 -2 0
-3 5 10 0
-4 -2 5 0
-9 -6 -3 0
-10 6 1 0
-10 1 7 0
5 3 4 0
1 10 -2 0
